p cnf 57 371
-1 0
-11 0
-12 0
-15 0
-25 0
-28 0
-35 0
-37 7 0
-38 2 0
-39 5 0
-40 17 0
-41 10 0
-42 6 0
-43 18 0
-44 9 0
-45 21 0
-46 14 0
-47 16 0
-48 19 0
-49 31 0
-50 26 0
-51 22 0
-52 34 0
-53 27 0
-54 29 0
-55 29 0
-56 34 0
-57 36 0
-2 38 0
-3 0
-4 0
-5 39 0
-6 42 0
-7 37 0
-8 0
-9 44 0
-10 41 0
-13 0
-14 46 0
-16 47 0
-17 40 0
-18 43 0
-19 48 0
-20 0
-21 45 0
-22 51 0
-23 0
-24 0
-26 50 0
-27 53 0
-29 55 54 0
-30 0
-31 49 0
-32 0
-33 0
-34 52 56 0
-36 57 0
37 38 0
39 40 41 0
42 43 0
44 45 46 47 0
48 49 50 0
51 52 53 54 0
55 56 57 0
-37 -38 0
-39 -40 0
-39 -41 0
-40 -41 0
-42 -43 0
-44 -45 0
-44 -46 0
-44 -47 0
-45 -46 0
-45 -47 0
-46 -47 0
-48 -49 0
-48 -50 0
-49 -50 0
-51 -52 0
-51 -53 0
-51 -54 0
-52 -53 0
-52 -54 0
-53 -54 0
-55 -56 0
-55 -57 0
-56 -57 0
-55 -54 0
-52 -56 0
-2 -8 0
-2 -3 0
-2 -7 0
-2 -9 0
-3 -9 0
-3 -4 0
-3 -8 0
-3 -10 0
-4 -10 0
-4 -5 0
-4 -9 0
-5 -6 0
-5 -10 0
-7 -13 0
-7 -8 0
-7 -14 0
-8 -14 0
-8 -9 0
-8 -13 0
-9 -10 0
-9 -14 0
-9 -16 0
-10 -16 0
-10 -17 0
-13 -19 0
-13 -14 0
-13 -20 0
-14 -20 0
-14 -19 0
-14 -21 0
-16 -22 0
-16 -17 0
-16 -21 0
-16 -23 0
-17 -23 0
-17 -18 0
-17 -22 0
-17 -24 0
-18 -24 0
-18 -23 0
-19 -20 0
-19 -26 0
-20 -26 0
-20 -21 0
-20 -27 0
-21 -27 0
-21 -22 0
-21 -26 0
-22 -23 0
-22 -27 0
-22 -29 0
-23 -29 0
-23 -24 0
-23 -30 0
-24 -30 0
-24 -29 0
-26 -32 0
-26 -27 0
-26 -31 0
-26 -33 0
-27 -33 0
-27 -32 0
-27 -34 0
-29 -30 0
-29 -34 0
-29 -36 0
-30 -36 0
-31 -32 0
-32 -33 0
-33 -34 0
1 2 3 4 5 0
1 2 3 4 6 0
1 2 3 5 6 0
1 2 4 5 6 0
1 3 4 5 6 0
2 3 4 5 6 0
-1 -2 -3 0
-1 -2 -4 0
-1 -2 -5 0
-1 -2 -6 0
-1 -3 -4 0
-1 -3 -5 0
-1 -3 -6 0
-1 -4 -5 0
-1 -4 -6 0
-1 -5 -6 0
-2 -3 -4 0
-2 -3 -5 0
-2 -3 -6 0
-2 -4 -5 0
-2 -4 -6 0
-2 -5 -6 0
-3 -4 -5 0
-3 -4 -6 0
-3 -5 -6 0
-4 -5 -6 0
7 8 9 10 11 12 0
-7 -8 0
-7 -9 0
-7 -10 0
-7 -11 0
-7 -12 0
-8 -9 0
-8 -10 0
-8 -11 0
-8 -12 0
-9 -10 0
-9 -11 0
-9 -12 0
-10 -11 0
-10 -12 0
-11 -12 0
13 14 15 16 17 18 0
-13 -14 0
-13 -15 0
-13 -16 0
-13 -17 0
-13 -18 0
-14 -15 0
-14 -16 0
-14 -17 0
-14 -18 0
-15 -16 0
-15 -17 0
-15 -18 0
-16 -17 0
-16 -18 0
-17 -18 0
19 20 21 22 23 24 0
-19 -20 0
-19 -21 0
-19 -22 0
-19 -23 0
-19 -24 0
-20 -21 0
-20 -22 0
-20 -23 0
-20 -24 0
-21 -22 0
-21 -23 0
-21 -24 0
-22 -23 0
-22 -24 0
-23 -24 0
-25 0
-26 0
-27 0
-28 0
-29 0
-30 0
31 32 33 34 35 0
31 32 33 34 36 0
31 32 33 35 36 0
31 32 34 35 36 0
31 33 34 35 36 0
32 33 34 35 36 0
-31 -32 -33 0
-31 -32 -34 0
-31 -32 -35 0
-31 -32 -36 0
-31 -33 -34 0
-31 -33 -35 0
-31 -33 -36 0
-31 -34 -35 0
-31 -34 -36 0
-31 -35 -36 0
-32 -33 -34 0
-32 -33 -35 0
-32 -33 -36 0
-32 -34 -35 0
-32 -34 -36 0
-32 -35 -36 0
-33 -34 -35 0
-33 -34 -36 0
-33 -35 -36 0
-34 -35 -36 0
1 7 13 19 25 31 0
-1 -7 0
-1 -13 0
-1 -19 0
-1 -25 0
-1 -31 0
-7 -13 0
-7 -19 0
-7 -25 0
-7 -31 0
-13 -19 0
-13 -25 0
-13 -31 0
-19 -25 0
-19 -31 0
-25 -31 0
2 8 14 20 26 0
2 8 14 20 32 0
2 8 14 26 32 0
2 8 20 26 32 0
2 14 20 26 32 0
8 14 20 26 32 0
-2 -8 -14 0
-2 -8 -20 0
-2 -8 -26 0
-2 -8 -32 0
-2 -14 -20 0
-2 -14 -26 0
-2 -14 -32 0
-2 -20 -26 0
-2 -20 -32 0
-2 -26 -32 0
-8 -14 -20 0
-8 -14 -26 0
-8 -14 -32 0
-8 -20 -26 0
-8 -20 -32 0
-8 -26 -32 0
-14 -20 -26 0
-14 -20 -32 0
-14 -26 -32 0
-20 -26 -32 0
-3 0
-9 0
-15 0
-21 0
-27 0
-33 0
4 10 16 22 28 0
4 10 16 22 34 0
4 10 16 28 34 0
4 10 22 28 34 0
4 16 22 28 34 0
10 16 22 28 34 0
-4 -10 -16 0
-4 -10 -22 0
-4 -10 -28 0
-4 -10 -34 0
-4 -16 -22 0
-4 -16 -28 0
-4 -16 -34 0
-4 -22 -28 0
-4 -22 -34 0
-4 -28 -34 0
-10 -16 -22 0
-10 -16 -28 0
-10 -16 -34 0
-10 -22 -28 0
-10 -22 -34 0
-10 -28 -34 0
-16 -22 -28 0
-16 -22 -34 0
-16 -28 -34 0
-22 -28 -34 0
-5 0
-11 0
-17 0
-23 0
-29 0
-35 0
6 12 18 24 30 0
6 12 18 24 36 0
6 12 18 30 36 0
6 12 24 30 36 0
6 18 24 30 36 0
12 18 24 30 36 0
-6 -12 -18 0
-6 -12 -24 0
-6 -12 -30 0
-6 -12 -36 0
-6 -18 -24 0
-6 -18 -30 0
-6 -18 -36 0
-6 -24 -30 0
-6 -24 -36 0
-6 -30 -36 0
-12 -18 -24 0
-12 -18 -30 0
-12 -18 -36 0
-12 -24 -30 0
-12 -24 -36 0
-12 -30 -36 0
-18 -24 -30 0
-18 -24 -36 0
-18 -30 -36 0
-24 -30 -36 0
